p edge 100 2438
e 1 2
e 1 3
e 1 6
e 1 8
e 1 14
e 1 15
e 1 16
e 1 18
e 1 20
e 1 21
e 1 25
e 1 26
e 1 27
e 1 28
e 1 30
e 1 32
e 1 38
e 1 39
e 1 40
e 1 41
e 1 42
e 1 43
e 1 44
e 1 45
e 1 48
e 1 49
e 1 50
e 1 51
e 1 52
e 1 55
e 1 57
e 1 59
e 1 65
e 1 66
e 1 67
e 1 70
e 1 72
e 1 73
e 1 76
e 1 77
e 1 80
e 1 83
e 1 84
e 1 86
e 1 89
e 1 94
e 1 96
e 1 99
e 2 4
e 2 5
e 2 8
e 2 9
e 2 12
e 2 14
e 2 18
e 2 19
e 2 20
e 2 22
e 2 23
e 2 26
e 2 29
e 2 31
e 2 32
e 2 33
e 2 35
e 2 37
e 2 38
e 2 39
e 2 43
e 2 44
e 2 45
e 2 46
e 2 49
e 2 50
e 2 51
e 2 52
e 2 55
e 2 58
e 2 61
e 2 62
e 2 63
e 2 69
e 2 70
e 2 72
e 2 74
e 2 77
e 2 79
e 2 80
e 2 82
e 2 83
e 2 84
e 2 86
e 2 87
e 2 90
e 2 91
e 2 93
e 2 94
e 2 95
e 2 97
e 2 99
e 3 5
e 3 6
e 3 7
e 3 9
e 3 11
e 3 12
e 3 14
e 3 16
e 3 19
e 3 20
e 3 23
e 3 24
e 3 25
e 3 30
e 3 31
e 3 33
e 3 34
e 3 35
e 3 40
e 3 42
e 3 43
e 3 48
e 3 49
e 3 50
e 3 52
e 3 55
e 3 56
e 3 59
e 3 61
e 3 63
e 3 64
e 3 65
e 3 68
e 3 70
e 3 71
e 3 75
e 3 77
e 3 79
e 3 81
e 3 82
e 3 83
e 3 84
e 3 86
e 3 90
e 3 91
e 3 93
e 3 96
e 3 98
e 3 99
e 4 6
e 4 9
e 4 11
e 4 12
e 4 13
e 4 17
e 4 19
e 4 20
e 4 21
e 4 22
e 4 23
e 4 33
e 4 36
e 4 38
e 4 39
e 4 42
e 4 44
e 4 48
e 4 52
e 4 53
e 4 55
e 4 58
e 4 59
e 4 60
e 4 61
e 4 62
e 4 64
e 4 68
e 4 75
e 4 77
e 4 82
e 4 84
e 4 85
e 4 89
e 4 90
e 4 92
e 4 93
e 4 94
e 4 96
e 4 99
e 5 6
e 5 7
e 5 9
e 5 12
e 5 13
e 5 14
e 5 16
e 5 17
e 5 19
e 5 21
e 5 24
e 5 29
e 5 31
e 5 32
e 5 33
e 5 35
e 5 36
e 5 38
e 5 39
e 5 40
e 5 41
e 5 42
e 5 44
e 5 47
e 5 48
e 5 49
e 5 52
e 5 54
e 5 56
e 5 57
e 5 59
e 5 61
e 5 62
e 5 64
e 5 67
e 5 68
e 5 70
e 5 71
e 5 73
e 5 74
e 5 76
e 5 77
e 5 80
e 5 81
e 5 83
e 5 85
e 5 86
e 5 87
e 5 89
e 5 96
e 5 97
e 5 98
e 6 9
e 6 13
e 6 20
e 6 23
e 6 24
e 6 25
e 6 26
e 6 28
e 6 29
e 6 34
e 6 35
e 6 36
e 6 37
e 6 39
e 6 41
e 6 43
e 6 44
e 6 45
e 6 46
e 6 47
e 6 49
e 6 50
e 6 52
e 6 53
e 6 56
e 6 57
e 6 58
e 6 60
e 6 65
e 6 66
e 6 67
e 6 69
e 6 71
e 6 72
e 6 73
e 6 74
e 6 79
e 6 80
e 6 82
e 6 83
e 6 84
e 6 86
e 6 89
e 6 90
e 6 93
e 6 94
e 6 96
e 6 98
e 6 99
e 6 100
e 7 9
e 7 11
e 7 14
e 7 16
e 7 17
e 7 19
e 7 20
e 7 26
e 7 28
e 7 30
e 7 31
e 7 32
e 7 33
e 7 35
e 7 37
e 7 41
e 7 42
e 7 43
e 7 45
e 7 46
e 7 48
e 7 49
e 7 51
e 7 52
e 7 57
e 7 58
e 7 61
e 7 63
e 7 64
e 7 70
e 7 72
e 7 74
e 7 75
e 7 76
e 7 77
e 7 79
e 7 81
e 7 82
e 7 84
e 7 85
e 7 86
e 7 88
e 7 89
e 7 90
e 7 92
e 7 94
e 7 95
e 7 96
e 7 99
e 8 9
e 8 10
e 8 11
e 8 12
e 8 14
e 8 16
e 8 19
e 8 20
e 8 21
e 8 22
e 8 23
e 8 27
e 8 30
e 8 32
e 8 35
e 8 36
e 8 37
e 8 38
e 8 39
e 8 41
e 8 44
e 8 46
e 8 48
e 8 50
e 8 51
e 8 52
e 8 54
e 8 55
e 8 56
e 8 57
e 8 61
e 8 62
e 8 67
e 8 75
e 8 77
e 8 79
e 8 80
e 8 86
e 8 90
e 8 91
e 8 93
e 8 95
e 8 97
e 8 100
e 9 15
e 9 16
e 9 17
e 9 19
e 9 24
e 9 25
e 9 26
e 9 28
e 9 29
e 9 32
e 9 33
e 9 45
e 9 46
e 9 51
e 9 53
e 9 58
e 9 59
e 9 60
e 9 65
e 9 67
e 9 68
e 9 72
e 9 73
e 9 74
e 9 75
e 9 76
e 9 77
e 9 80
e 9 81
e 9 84
e 9 86
e 9 87
e 9 88
e 9 89
e 9 90
e 9 92
e 9 93
e 9 95
e 9 96
e 10 12
e 10 15
e 10 16
e 10 23
e 10 24
e 10 26
e 10 27
e 10 30
e 10 31
e 10 33
e 10 37
e 10 41
e 10 42
e 10 46
e 10 48
e 10 50
e 10 52
e 10 55
e 10 57
e 10 58
e 10 60
e 10 61
e 10 63
e 10 66
e 10 67
e 10 69
e 10 71
e 10 72
e 10 73
e 10 74
e 10 78
e 10 80
e 10 83
e 10 85
e 10 86
e 10 87
e 10 90
e 10 91
e 10 93
e 10 95
e 10 96
e 10 97
e 10 98
e 10 100
e 11 13
e 11 14
e 11 16
e 11 18
e 11 20
e 11 25
e 11 32
e 11 33
e 11 34
e 11 36
e 11 37
e 11 38
e 11 44
e 11 45
e 11 46
e 11 49
e 11 51
e 11 54
e 11 57
e 11 58
e 11 64
e 11 65
e 11 69
e 11 70
e 11 72
e 11 73
e 11 74
e 11 77
e 11 80
e 11 82
e 11 85
e 11 86
e 11 87
e 11 89
e 11 90
e 11 91
e 11 92
e 11 95
e 11 96
e 11 97
e 11 98
e 11 100
e 12 13
e 12 15
e 12 17
e 12 18
e 12 21
e 12 28
e 12 29
e 12 32
e 12 36
e 12 38
e 12 39
e 12 44
e 12 47
e 12 48
e 12 50
e 12 51
e 12 52
e 12 55
e 12 58
e 12 59
e 12 60
e 12 63
e 12 64
e 12 65
e 12 67
e 12 68
e 12 71
e 12 73
e 12 74
e 12 75
e 12 80
e 12 82
e 12 86
e 12 89
e 12 90
e 12 94
e 12 96
e 12 97
e 12 99
e 13 14
e 13 17
e 13 19
e 13 22
e 13 23
e 13 24
e 13 26
e 13 27
e 13 32
e 13 34
e 13 36
e 13 37
e 13 38
e 13 41
e 13 43
e 13 45
e 13 48
e 13 49
e 13 50
e 13 51
e 13 52
e 13 54
e 13 62
e 13 64
e 13 65
e 13 66
e 13 67
e 13 71
e 13 74
e 13 75
e 13 76
e 13 82
e 13 83
e 13 87
e 13 89
e 13 90
e 13 93
e 13 96
e 14 15
e 14 16
e 14 17
e 14 19
e 14 21
e 14 22
e 14 24
e 14 25
e 14 26
e 14 27
e 14 29
e 14 31
e 14 34
e 14 42
e 14 44
e 14 45
e 14 49
e 14 51
e 14 56
e 14 58
e 14 59
e 14 60
e 14 61
e 14 62
e 14 64
e 14 65
e 14 66
e 14 69
e 14 70
e 14 71
e 14 73
e 14 77
e 14 78
e 14 80
e 14 81
e 14 82
e 14 83
e 14 84
e 14 85
e 14 86
e 14 87
e 14 90
e 14 93
e 14 94
e 14 96
e 14 97
e 14 100
e 15 16
e 15 17
e 15 19
e 15 21
e 15 24
e 15 25
e 15 26
e 15 27
e 15 31
e 15 32
e 15 35
e 15 36
e 15 38
e 15 41
e 15 48
e 15 49
e 15 50
e 15 51
e 15 52
e 15 58
e 15 59
e 15 60
e 15 62
e 15 63
e 15 65
e 15 67
e 15 68
e 15 69
e 15 75
e 15 76
e 15 77
e 15 79
e 15 80
e 15 82
e 15 83
e 15 86
e 15 87
e 15 88
e 15 91
e 15 93
e 15 94
e 15 96
e 15 97
e 15 98
e 15 99
e 16 17
e 16 18
e 16 19
e 16 20
e 16 23
e 16 24
e 16 26
e 16 28
e 16 32
e 16 34
e 16 35
e 16 37
e 16 38
e 16 40
e 16 42
e 16 43
e 16 44
e 16 47
e 16 48
e 16 49
e 16 51
e 16 54
e 16 55
e 16 60
e 16 61
e 16 62
e 16 63
e 16 64
e 16 65
e 16 68
e 16 69
e 16 70
e 16 71
e 16 72
e 16 73
e 16 74
e 16 77
e 16 78
e 16 81
e 16 84
e 16 85
e 16 86
e 16 88
e 16 89
e 16 92
e 16 94
e 16 95
e 16 98
e 16 100
e 17 18
e 17 19
e 17 21
e 17 25
e 17 27
e 17 28
e 17 29
e 17 31
e 17 35
e 17 41
e 17 44
e 17 45
e 17 46
e 17 48
e 17 50
e 17 52
e 17 53
e 17 54
e 17 59
e 17 61
e 17 62
e 17 68
e 17 69
e 17 72
e 17 74
e 17 76
e 17 77
e 17 80
e 17 81
e 17 83
e 17 87
e 17 89
e 17 90
e 17 91
e 17 93
e 17 96
e 17 97
e 17 98
e 17 99
e 18 19
e 18 20
e 18 21
e 18 22
e 18 23
e 18 24
e 18 29
e 18 30
e 18 32
e 18 33
e 18 34
e 18 35
e 18 36
e 18 38
e 18 39
e 18 41
e 18 43
e 18 44
e 18 45
e 18 46
e 18 52
e 18 54
e 18 55
e 18 61
e 18 62
e 18 63
e 18 64
e 18 65
e 18 68
e 18 69
e 18 78
e 18 85
e 18 87
e 18 89
e 18 90
e 18 93
e 18 94
e 18 98
e 18 99
e 19 21
e 19 22
e 19 24
e 19 27
e 19 30
e 19 35
e 19 36
e 19 37
e 19 38
e 19 39
e 19 41
e 19 43
e 19 46
e 19 48
e 19 52
e 19 54
e 19 55
e 19 59
e 19 60
e 19 62
e 19 63
e 19 68
e 19 69
e 19 72
e 19 73
e 19 74
e 19 75
e 19 78
e 19 79
e 19 80
e 19 81
e 19 82
e 19 83
e 19 85
e 19 86
e 19 87
e 19 90
e 19 92
e 19 95
e 19 96
e 19 99
e 20 24
e 20 25
e 20 26
e 20 32
e 20 33
e 20 35
e 20 38
e 20 40
e 20 42
e 20 43
e 20 44
e 20 47
e 20 50
e 20 52
e 20 55
e 20 59
e 20 60
e 20 64
e 20 65
e 20 67
e 20 70
e 20 73
e 20 75
e 20 77
e 20 86
e 20 88
e 20 89
e 20 90
e 20 91
e 20 93
e 20 95
e 20 97
e 20 100
e 21 22
e 21 24
e 21 27
e 21 28
e 21 29
e 21 31
e 21 32
e 21 34
e 21 38
e 21 41
e 21 42
e 21 46
e 21 48
e 21 50
e 21 51
e 21 52
e 21 53
e 21 54
e 21 56
e 21 58
e 21 62
e 21 65
e 21 66
e 21 67
e 21 70
e 21 71
e 21 75
e 21 76
e 21 77
e 21 79
e 21 83
e 21 84
e 21 85
e 21 86
e 21 89
e 21 90
e 21 92
e 21 93
e 21 96
e 21 98
e 21 100
e 22 23
e 22 26
e 22 31
e 22 32
e 22 33
e 22 39
e 22 40
e 22 42
e 22 43
e 22 44
e 22 45
e 22 46
e 22 49
e 22 50
e 22 51
e 22 53
e 22 54
e 22 55
e 22 59
e 22 61
e 22 62
e 22 63
e 22 65
e 22 66
e 22 70
e 22 71
e 22 72
e 22 77
e 22 78
e 22 79
e 22 81
e 22 84
e 22 86
e 22 87
e 22 89
e 22 90
e 22 94
e 22 95
e 22 97
e 22 99
e 23 25
e 23 26
e 23 27
e 23 29
e 23 30
e 23 31
e 23 32
e 23 34
e 23 36
e 23 38
e 23 41
e 23 45
e 23 46
e 23 48
e 23 49
e 23 54
e 23 59
e 23 61
e 23 64
e 23 65
e 23 70
e 23 72
e 23 73
e 23 74
e 23 75
e 23 76
e 23 77
e 23 78
e 23 79
e 23 80
e 23 81
e 23 82
e 23 85
e 23 87
e 23 90
e 23 91
e 23 92
e 23 93
e 23 95
e 23 96
e 23 97
e 23 98
e 23 100
e 24 25
e 24 26
e 24 29
e 24 31
e 24 32
e 24 33
e 24 34
e 24 35
e 24 37
e 24 38
e 24 39
e 24 41
e 24 42
e 24 44
e 24 45
e 24 46
e 24 47
e 24 48
e 24 50
e 24 52
e 24 55
e 24 61
e 24 64
e 24 69
e 24 77
e 24 78
e 24 80
e 24 81
e 24 82
e 24 83
e 24 86
e 24 87
e 24 88
e 24 91
e 24 92
e 24 93
e 24 97
e 24 98
e 24 99
e 24 100
e 25 27
e 25 28
e 25 31
e 25 34
e 25 35
e 25 40
e 25 41
e 25 42
e 25 43
e 25 44
e 25 46
e 25 47
e 25 48
e 25 49
e 25 51
e 25 53
e 25 54
e 25 56
e 25 59
e 25 64
e 25 65
e 25 68
e 25 69
e 25 70
e 25 71
e 25 72
e 25 73
e 25 77
e 25 79
e 25 80
e 25 82
e 25 85
e 25 88
e 25 89
e 25 91
e 25 92
e 25 93
e 25 95
e 25 97
e 25 99
e 25 100
e 26 29
e 26 34
e 26 35
e 26 37
e 26 39
e 26 41
e 26 42
e 26 44
e 26 47
e 26 48
e 26 51
e 26 52
e 26 53
e 26 56
e 26 57
e 26 59
e 26 62
e 26 64
e 26 66
e 26 69
e 26 70
e 26 79
e 26 81
e 26 82
e 26 83
e 26 84
e 26 87
e 26 90
e 26 92
e 26 93
e 26 94
e 26 97
e 26 99
e 27 29
e 27 31
e 27 36
e 27 37
e 27 40
e 27 41
e 27 43
e 27 45
e 27 47
e 27 49
e 27 50
e 27 52
e 27 55
e 27 56
e 27 60
e 27 61
e 27 62
e 27 65
e 27 67
e 27 69
e 27 70
e 27 71
e 27 72
e 27 73
e 27 77
e 27 78
e 27 80
e 27 83
e 27 86
e 27 87
e 27 89
e 27 90
e 27 91
e 27 92
e 27 93
e 27 95
e 27 96
e 27 97
e 27 99
e 27 100
e 28 29
e 28 31
e 28 33
e 28 35
e 28 36
e 28 37
e 28 39
e 28 40
e 28 42
e 28 43
e 28 49
e 28 52
e 28 55
e 28 59
e 28 61
e 28 62
e 28 63
e 28 64
e 28 65
e 28 66
e 28 70
e 28 71
e 28 73
e 28 76
e 28 78
e 28 79
e 28 81
e 28 84
e 28 90
e 28 91
e 28 92
e 28 93
e 28 95
e 28 96
e 28 100
e 29 31
e 29 32
e 29 33
e 29 35
e 29 38
e 29 41
e 29 42
e 29 43
e 29 44
e 29 45
e 29 48
e 29 53
e 29 57
e 29 60
e 29 61
e 29 62
e 29 63
e 29 64
e 29 70
e 29 71
e 29 74
e 29 76
e 29 79
e 29 80
e 29 81
e 29 82
e 29 83
e 29 85
e 29 86
e 29 88
e 29 94
e 29 97
e 29 98
e 29 99
e 29 100
e 30 31
e 30 33
e 30 36
e 30 37
e 30 38
e 30 39
e 30 41
e 30 46
e 30 48
e 30 49
e 30 53
e 30 54
e 30 62
e 30 63
e 30 65
e 30 70
e 30 71
e 30 73
e 30 74
e 30 77
e 30 80
e 30 82
e 30 84
e 30 85
e 30 86
e 30 89
e 30 90
e 30 91
e 30 94
e 30 95
e 30 96
e 30 97
e 30 99
e 31 32
e 31 36
e 31 37
e 31 38
e 31 40
e 31 41
e 31 43
e 31 47
e 31 48
e 31 52
e 31 53
e 31 54
e 31 55
e 31 56
e 31 57
e 31 58
e 31 63
e 31 64
e 31 66
e 31 69
e 31 71
e 31 73
e 31 76
e 31 77
e 31 78
e 31 80
e 31 85
e 31 86
e 31 87
e 31 89
e 31 91
e 31 92
e 31 93
e 31 95
e 31 98
e 32 33
e 32 34
e 32 36
e 32 37
e 32 38
e 32 41
e 32 42
e 32 43
e 32 48
e 32 51
e 32 53
e 32 56
e 32 57
e 32 63
e 32 64
e 32 65
e 32 66
e 32 67
e 32 68
e 32 69
e 32 72
e 32 74
e 32 75
e 32 77
e 32 81
e 32 83
e 32 84
e 32 87
e 32 89
e 32 90
e 32 91
e 32 94
e 33 35
e 33 38
e 33 40
e 33 41
e 33 42
e 33 44
e 33 46
e 33 49
e 33 50
e 33 52
e 33 54
e 33 55
e 33 56
e 33 57
e 33 58
e 33 64
e 33 67
e 33 69
e 33 71
e 33 72
e 33 73
e 33 74
e 33 79
e 33 80
e 33 82
e 33 86
e 33 87
e 33 90
e 33 92
e 33 93
e 33 94
e 33 98
e 33 99
e 33 100
e 34 36
e 34 41
e 34 43
e 34 44
e 34 45
e 34 48
e 34 49
e 34 50
e 34 51
e 34 52
e 34 53
e 34 54
e 34 56
e 34 57
e 34 60
e 34 66
e 34 68
e 34 69
e 34 72
e 34 73
e 34 75
e 34 78
e 34 79
e 34 80
e 34 84
e 34 85
e 34 91
e 34 93
e 34 95
e 34 98
e 34 100
e 35 37
e 35 40
e 35 41
e 35 43
e 35 46
e 35 50
e 35 52
e 35 53
e 35 57
e 35 58
e 35 59
e 35 62
e 35 63
e 35 65
e 35 66
e 35 67
e 35 69
e 35 70
e 35 71
e 35 72
e 35 74
e 35 75
e 35 77
e 35 85
e 35 86
e 35 88
e 35 89
e 35 92
e 35 93
e 35 95
e 35 97
e 35 98
e 35 99
e 36 37
e 36 38
e 36 39
e 36 42
e 36 43
e 36 47
e 36 49
e 36 50
e 36 52
e 36 53
e 36 54
e 36 55
e 36 57
e 36 59
e 36 62
e 36 64
e 36 65
e 36 68
e 36 69
e 36 71
e 36 73
e 36 77
e 36 78
e 36 87
e 36 88
e 36 91
e 36 95
e 36 100
e 37 39
e 37 40
e 37 41
e 37 42
e 37 46
e 37 48
e 37 50
e 37 52
e 37 53
e 37 59
e 37 60
e 37 61
e 37 63
e 37 65
e 37 67
e 37 70
e 37 72
e 37 73
e 37 77
e 37 78
e 37 80
e 37 81
e 37 83
e 37 88
e 37 90
e 37 91
e 37 95
e 37 96
e 37 97
e 37 99
e 37 100
e 38 39
e 38 46
e 38 48
e 38 49
e 38 50
e 38 52
e 38 53
e 38 56
e 38 59
e 38 60
e 38 61
e 38 63
e 38 68
e 38 69
e 38 71
e 38 77
e 38 78
e 38 79
e 38 80
e 38 81
e 38 83
e 38 85
e 38 87
e 38 89
e 38 93
e 38 94
e 38 95
e 38 97
e 39 41
e 39 42
e 39 46
e 39 47
e 39 48
e 39 50
e 39 52
e 39 53
e 39 55
e 39 57
e 39 58
e 39 60
e 39 61
e 39 68
e 39 72
e 39 74
e 39 75
e 39 77
e 39 78
e 39 81
e 39 83
e 39 84
e 39 86
e 39 87
e 39 88
e 39 90
e 39 96
e 39 98
e 39 100
e 40 41
e 40 44
e 40 46
e 40 47
e 40 48
e 40 50
e 40 52
e 40 54
e 40 57
e 40 58
e 40 59
e 40 67
e 40 68
e 40 72
e 40 73
e 40 74
e 40 77
e 40 78
e 40 80
e 40 81
e 40 82
e 40 83
e 40 86
e 40 90
e 40 91
e 40 93
e 40 96
e 41 42
e 41 46
e 41 50
e 41 52
e 41 53
e 41 54
e 41 55
e 41 57
e 41 58
e 41 62
e 41 63
e 41 65
e 41 66
e 41 67
e 41 73
e 41 75
e 41 76
e 41 79
e 41 82
e 41 84
e 41 86
e 41 87
e 41 88
e 41 92
e 41 93
e 41 98
e 41 99
e 41 100
e 42 43
e 42 44
e 42 45
e 42 48
e 42 49
e 42 50
e 42 51
e 42 52
e 42 55
e 42 56
e 42 57
e 42 58
e 42 60
e 42 61
e 42 67
e 42 68
e 42 69
e 42 70
e 42 74
e 42 76
e 42 77
e 42 84
e 42 85
e 42 86
e 42 87
e 42 88
e 42 89
e 42 90
e 42 92
e 42 93
e 42 96
e 42 97
e 42 99
e 42 100
e 43 44
e 43 46
e 43 47
e 43 49
e 43 51
e 43 52
e 43 54
e 43 55
e 43 56
e 43 57
e 43 58
e 43 62
e 43 64
e 43 66
e 43 69
e 43 70
e 43 71
e 43 72
e 43 73
e 43 74
e 43 76
e 43 77
e 43 79
e 43 80
e 43 84
e 43 85
e 43 91
e 43 92
e 43 95
e 43 97
e 43 98
e 43 99
e 44 46
e 44 49
e 44 50
e 44 51
e 44 54
e 44 55
e 44 58
e 44 59
e 44 62
e 44 63
e 44 64
e 44 65
e 44 66
e 44 69
e 44 70
e 44 71
e 44 73
e 44 78
e 44 79
e 44 81
e 44 82
e 44 84
e 44 85
e 44 86
e 44 87
e 44 89
e 44 90
e 44 91
e 44 93
e 44 95
e 44 96
e 44 98
e 44 100
e 45 46
e 45 47
e 45 48
e 45 50
e 45 52
e 45 53
e 45 56
e 45 57
e 45 58
e 45 59
e 45 61
e 45 62
e 45 67
e 45 70
e 45 71
e 45 74
e 45 76
e 45 77
e 45 78
e 45 79
e 45 82
e 45 83
e 45 84
e 45 86
e 45 88
e 45 89
e 45 91
e 45 92
e 45 94
e 45 96
e 45 97
e 45 100
e 46 48
e 46 50
e 46 51
e 46 52
e 46 54
e 46 57
e 46 58
e 46 61
e 46 62
e 46 64
e 46 66
e 46 67
e 46 68
e 46 69
e 46 70
e 46 71
e 46 74
e 46 75
e 46 76
e 46 77
e 46 84
e 46 85
e 46 86
e 46 89
e 46 90
e 46 92
e 46 93
e 46 96
e 46 97
e 46 98
e 47 48
e 47 49
e 47 50
e 47 51
e 47 52
e 47 54
e 47 57
e 47 60
e 47 62
e 47 66
e 47 69
e 47 70
e 47 71
e 47 72
e 47 74
e 47 78
e 47 80
e 47 83
e 47 84
e 47 85
e 47 90
e 47 91
e 47 94
e 47 96
e 47 98
e 47 100
e 48 50
e 48 53
e 48 56
e 48 60
e 48 61
e 48 64
e 48 73
e 48 74
e 48 80
e 48 83
e 48 85
e 48 86
e 48 90
e 48 94
e 48 98
e 48 100
e 49 50
e 49 51
e 49 52
e 49 53
e 49 54
e 49 55
e 49 60
e 49 61
e 49 64
e 49 66
e 49 69
e 49 71
e 49 72
e 49 78
e 49 80
e 49 81
e 49 82
e 49 83
e 49 85
e 49 92
e 49 93
e 49 97
e 49 99
e 49 100
e 50 53
e 50 54
e 50 59
e 50 63
e 50 65
e 50 66
e 50 70
e 50 72
e 50 73
e 50 78
e 50 81
e 50 82
e 50 84
e 50 86
e 50 87
e 50 88
e 50 89
e 50 90
e 50 93
e 50 96
e 50 99
e 51 52
e 51 53
e 51 55
e 51 57
e 51 58
e 51 61
e 51 62
e 51 64
e 51 70
e 51 71
e 51 75
e 51 76
e 51 77
e 51 81
e 51 83
e 51 84
e 51 88
e 51 89
e 51 91
e 51 93
e 51 94
e 51 99
e 51 100
e 52 53
e 52 55
e 52 56
e 52 57
e 52 58
e 52 60
e 52 62
e 52 66
e 52 69
e 52 71
e 52 72
e 52 75
e 52 76
e 52 77
e 52 78
e 52 79
e 52 81
e 52 82
e 52 87
e 52 91
e 52 92
e 52 94
e 52 97
e 52 100
e 53 61
e 53 63
e 53 64
e 53 65
e 53 66
e 53 67
e 53 70
e 53 74
e 53 75
e 53 77
e 53 78
e 53 79
e 53 81
e 53 83
e 53 85
e 53 87
e 53 89
e 53 93
e 53 95
e 53 99
e 53 100
e 54 55
e 54 59
e 54 61
e 54 63
e 54 64
e 54 65
e 54 68
e 54 69
e 54 74
e 54 76
e 54 77
e 54 79
e 54 85
e 54 89
e 54 90
e 54 93
e 54 97
e 54 100
e 55 57
e 55 58
e 55 59
e 55 61
e 55 62
e 55 66
e 55 67
e 55 70
e 55 74
e 55 75
e 55 77
e 55 78
e 55 79
e 55 84
e 55 85
e 55 88
e 55 89
e 55 91
e 55 92
e 55 93
e 55 96
e 55 97
e 55 98
e 55 100
e 56 58
e 56 61
e 56 62
e 56 63
e 56 64
e 56 66
e 56 69
e 56 70
e 56 71
e 56 72
e 56 75
e 56 77
e 56 81
e 56 85
e 56 90
e 56 92
e 56 93
e 56 97
e 56 98
e 56 99
e 57 59
e 57 60
e 57 61
e 57 67
e 57 72
e 57 76
e 57 77
e 57 78
e 57 80
e 57 82
e 57 83
e 57 84
e 57 88
e 57 89
e 57 90
e 57 95
e 57 96
e 57 97
e 57 100
e 58 61
e 58 62
e 58 63
e 58 65
e 58 66
e 58 69
e 58 71
e 58 72
e 58 73
e 58 75
e 58 76
e 58 79
e 58 81
e 58 89
e 58 90
e 58 91
e 58 94
e 58 98
e 59 60
e 59 61
e 59 64
e 59 66
e 59 67
e 59 69
e 59 70
e 59 74
e 59 82
e 59 83
e 59 84
e 59 85
e 59 86
e 59 87
e 59 89
e 59 91
e 59 93
e 59 95
e 59 99
e 60 62
e 60 64
e 60 65
e 60 67
e 60 68
e 60 69
e 60 70
e 60 72
e 60 75
e 60 76
e 60 78
e 60 79
e 60 80
e 60 86
e 60 87
e 60 88
e 60 89
e 60 92
e 60 93
e 60 99
e 60 100
e 61 65
e 61 72
e 61 74
e 61 76
e 61 77
e 61 79
e 61 80
e 61 81
e 61 82
e 61 83
e 61 85
e 61 86
e 61 88
e 61 89
e 61 91
e 61 94
e 61 99
e 61 100
e 62 64
e 62 70
e 62 74
e 62 75
e 62 76
e 62 79
e 62 82
e 62 86
e 62 87
e 62 88
e 62 90
e 62 91
e 62 96
e 62 97
e 63 67
e 63 69
e 63 71
e 63 72
e 63 73
e 63 77
e 63 78
e 63 82
e 63 83
e 63 84
e 63 85
e 63 87
e 63 88
e 63 90
e 63 92
e 63 93
e 63 98
e 64 65
e 64 66
e 64 67
e 64 68
e 64 69
e 64 70
e 64 71
e 64 76
e 64 79
e 64 80
e 64 81
e 64 88
e 64 89
e 64 90
e 64 91
e 64 93
e 64 94
e 64 99
e 64 100
e 65 66
e 65 68
e 65 69
e 65 72
e 65 74
e 65 76
e 65 77
e 65 79
e 65 80
e 65 81
e 65 87
e 65 90
e 65 91
e 65 93
e 65 94
e 65 96
e 65 97
e 65 98
e 65 99
e 65 100
e 66 67
e 66 69
e 66 72
e 66 73
e 66 74
e 66 76
e 66 80
e 66 83
e 66 84
e 66 88
e 66 90
e 66 92
e 66 93
e 66 95
e 66 96
e 66 98
e 66 99
e 66 100
e 67 69
e 67 70
e 67 71
e 67 72
e 67 73
e 67 74
e 67 76
e 67 78
e 67 79
e 67 80
e 67 82
e 67 83
e 67 85
e 67 88
e 67 89
e 67 91
e 67 93
e 67 94
e 67 96
e 67 98
e 67 100
e 68 69
e 68 70
e 68 74
e 68 75
e 68 76
e 68 79
e 68 82
e 68 83
e 68 85
e 68 93
e 68 96
e 68 97
e 69 72
e 69 74
e 69 75
e 69 78
e 69 79
e 69 80
e 69 82
e 69 83
e 69 84
e 69 87
e 69 90
e 69 93
e 69 94
e 69 97
e 69 100
e 70 71
e 70 73
e 70 74
e 70 75
e 70 76
e 70 80
e 70 82
e 70 83
e 70 86
e 70 87
e 70 88
e 70 90
e 70 91
e 70 92
e 70 93
e 70 94
e 70 95
e 70 99
e 71 76
e 71 77
e 71 80
e 71 86
e 71 90
e 71 91
e 71 92
e 71 94
e 71 95
e 71 98
e 71 99
e 71 100
e 72 73
e 72 74
e 72 75
e 72 77
e 72 78
e 72 79
e 72 81
e 72 83
e 72 85
e 72 86
e 72 93
e 72 94
e 72 97
e 72 98
e 72 99
e 72 100
e 73 75
e 73 76
e 73 78
e 73 79
e 73 80
e 73 84
e 73 86
e 73 89
e 73 90
e 73 91
e 73 92
e 73 94
e 73 98
e 74 75
e 74 77
e 74 79
e 74 83
e 74 85
e 74 86
e 74 87
e 74 88
e 74 89
e 74 91
e 74 94
e 74 97
e 74 98
e 74 99
e 75 77
e 75 79
e 75 82
e 75 84
e 75 88
e 75 90
e 75 92
e 75 93
e 75 96
e 75 100
e 76 77
e 76 79
e 76 80
e 76 81
e 76 83
e 76 85
e 76 89
e 76 91
e 76 93
e 76 95
e 76 99
e 76 100
e 77 79
e 77 84
e 77 88
e 77 89
e 77 90
e 77 92
e 77 93
e 77 96
e 77 97
e 77 98
e 77 99
e 78 80
e 78 82
e 78 83
e 78 84
e 78 85
e 78 88
e 78 89
e 78 94
e 78 95
e 78 97
e 78 98
e 78 99
e 79 80
e 79 87
e 79 88
e 79 89
e 79 91
e 79 93
e 79 96
e 79 97
e 79 99
e 79 100
e 80 81
e 80 83
e 80 84
e 80 86
e 80 89
e 80 92
e 80 93
e 80 94
e 80 95
e 80 98
e 81 84
e 81 88
e 81 90
e 81 92
e 81 94
e 81 95
e 81 96
e 81 98
e 81 99
e 81 100
e 82 84
e 82 85
e 82 86
e 82 89
e 82 90
e 82 91
e 82 93
e 82 95
e 82 98
e 82 99
e 83 85
e 83 90
e 83 92
e 83 98
e 84 86
e 84 92
e 84 93
e 84 94
e 84 97
e 84 98
e 84 100
e 85 86
e 85 87
e 85 92
e 85 94
e 85 95
e 85 96
e 85 98
e 85 100
e 86 87
e 86 90
e 86 91
e 86 94
e 86 96
e 86 100
e 87 89
e 87 90
e 87 93
e 87 94
e 87 99
e 88 91
e 88 93
e 88 95
e 88 96
e 88 97
e 88 98
e 88 100
e 89 90
e 89 91
e 89 94
e 89 97
e 89 98
e 89 99
e 90 92
e 90 93
e 90 96
e 90 97
e 90 98
e 90 99
e 90 100
e 91 92
e 91 93
e 91 94
e 91 96
e 92 93
e 92 95
e 92 96
e 92 97
e 92 98
e 92 100
e 93 94
e 93 96
e 93 98
e 93 99
e 94 98
e 94 99
e 94 100
e 95 96
e 95 97
e 96 97
e 96 99
e 96 100
e 97 99
e 98 100
e 99 100